<instance format="XCSP3" type="COP">
  <variables>
    <array id="x" size="[16]"> 0..15 </array>
    <array id="d" size="[16][16]"> 0..3 </array>
  </variables>
  <constraints>
    <allDifferent> x[] </allDifferent>
    <group>
      <extension>
        <list> %0 %1 %2 </list>
        <supports> (0,1,0)(0,2,0)(0,3,1)(0,4,0)(0,5,1)(0,6,1)(0,7,2)(0,8,0)(0,9,1)(0,10,1)(0,11,2)(0,12,1)(0,13,2)(0,14,2)(0,15,3)(1,0,0)(1,2,1)(1,3,0)(1,4,1)(1,5,0)(1,6,2)(1,7,1)(1,8,1)(1,9,0)(1,10,2)(1,11,1)(1,12,2)(1,13,1)(1,14,3)(1,15,2)(2,0,0)(2,1,1)(2,3,0)(2,4,1)(2,5,2)(2,6,0)(2,7,1)(2,8,1)(2,9,2)(2,10,0)(2,11,1)(2,12,2)(2,13,3)(2,14,1)(2,15,2)(3,0,1)(3,1,0)(3,2,0)(3,4,2)(3,5,1)(3,6,1)(3,7,0)(3,8,2)(3,9,1)(3,10,1)(3,11,0)(3,12,3)(3,13,2)(3,14,2)(3,15,1)(4,0,0)(4,1,1)(4,2,1)(4,3,2)(4,5,0)(4,6,0)(4,7,1)(4,8,1)(4,9,2)(4,10,2)(4,11,3)(4,12,0)(4,13,1)(4,14,1)(4,15,2)(5,0,1)(5,1,0)(5,2,2)(5,3,1)(5,4,0)(5,6,1)(5,7,0)(5,8,2)(5,9,1)(5,10,3)(5,11,2)(5,12,1)(5,13,0)(5,14,2)(5,15,1)(6,0,1)(6,1,2)(6,2,0)(6,3,1)(6,4,0)(6,5,1)(6,7,0)(6,8,2)(6,9,3)(6,10,1)(6,11,2)(6,12,1)(6,13,2)(6,14,0)(6,15,1)(7,0,2)(7,1,1)(7,2,1)(7,3,0)(7,4,1)(7,5,0)(7,6,0)(7,8,3)(7,9,2)(7,10,2)(7,11,1)(7,12,2)(7,13,1)(7,14,1)(7,15,0)(8,0,0)(8,1,1)(8,2,1)(8,3,2)(8,4,1)(8,5,2)(8,6,2)(8,7,3)(8,9,0)(8,10,0)(8,11,1)(8,12,0)(8,13,1)(8,14,1)(8,15,2)(9,0,1)(9,1,0)(9,2,2)(9,3,1)(9,4,2)(9,5,1)(9,6,3)(9,7,2)(9,8,0)(9,10,1)(9,11,0)(9,12,1)(9,13,0)(9,14,2)(9,15,1)(10,0,1)(10,1,2)(10,2,0)(10,3,1)(10,4,2)(10,5,3)(10,6,1)(10,7,2)(10,8,0)(10,9,1)(10,11,0)(10,12,1)(10,13,2)(10,14,0)(10,15,1)(11,0,2)(11,1,1)(11,2,1)(11,3,0)(11,4,3)(11,5,2)(11,6,2)(11,7,1)(11,8,1)(11,9,0)(11,10,0)(11,12,2)(11,13,1)(11,14,1)(11,15,0)(12,0,1)(12,1,2)(12,2,2)(12,3,3)(12,4,0)(12,5,1)(12,6,1)(12,7,2)(12,8,0)(12,9,1)(12,10,1)(12,11,2)(12,13,0)(12,14,0)(12,15,1)(13,0,2)(13,1,1)(13,2,3)(13,3,2)(13,4,1)(13,5,0)(13,6,2)(13,7,1)(13,8,1)(13,9,0)(13,10,2)(13,11,1)(13,12,0)(13,14,1)(13,15,0)(14,0,2)(14,1,3)(14,2,1)(14,3,2)(14,4,1)(14,5,2)(14,6,0)(14,7,1)(14,8,1)(14,9,2)(14,10,0)(14,11,1)(14,12,0)(14,13,1)(14,15,0)(15,0,3)(15,1,2)(15,2,2)(15,3,1)(15,4,2)(15,5,1)(15,6,1)(15,7,0)(15,8,2)(15,9,1)(15,10,1)(15,11,0)(15,12,1)(15,13,0)(15,14,0) </supports>
      </extension>
      <args> x[0..1] d[0][1] </args>
      <args> x[0] x[2] d[0][2] </args>
      <args> x[0] x[3] d[0][3] </args>
      <args> x[0] x[4] d[0][4] </args>
      <args> x[0] x[5] d[0][5] </args>
      <args> x[0] x[6] d[0][6] </args>
      <args> x[0] x[7] d[0][7] </args>
      <args> x[0] x[8] d[0][8] </args>
      <args> x[0] x[9] d[0][9] </args>
      <args> x[1..2] d[1][2] </args>
      <args> x[1] x[3] d[1][3] </args>
      <args> x[1] x[4] d[1][4] </args>
      <args> x[1] x[7] d[1][7] </args>
      <args> x[1] x[8] d[1][8] </args>
      <args> x[1] x[9] d[1][9] </args>
      <args> x[2..3] d[2][3] </args>
      <args> x[2] x[7] d[2][7] </args>
      <args> x[2] x[8] d[2][8] </args>
      <args> x[2] x[9] d[2][9] </args>
      <args> x[3] x[6] d[3][6] </args>
      <args> x[3] x[7] d[3][7] </args>
      <args> x[3] x[8] d[3][8] </args>
      <args> x[3] x[9] d[3][9] </args>
      <args> x[4..5] d[4][5] </args>
      <args> x[4] x[6] d[4][6] </args>
      <args> x[4] x[7] d[4][7] </args>
      <args> x[4] x[8] d[4][8] </args>
      <args> x[4] x[9] d[4][9] </args>
      <args> x[5..6] d[5][6] </args>
      <args> x[5] x[7] d[5][7] </args>
      <args> x[5] x[8] d[5][8] </args>
      <args> x[5] x[9] d[5][9] </args>
      <args> x[6..7] d[6][7] </args>
      <args> x[6] x[8] d[6][8] </args>
      <args> x[6] x[9] d[6][9] </args>
      <args> x[7..8] d[7][8] </args>
      <args> x[7] x[9] d[7][9] </args>
      <args> x[8..9] d[8][9] </args>
    </group>
  </constraints>
  <objectives>
    <minimize type="sum">
      <list> d[0][1..9] d[1][2..4] d[1][7..9] d[2][3] d[2][7..9] d[3][6..9] d[4][5..9] d[5][6..9] d[6][7..9] d[7][8..9] d[8][9] </list>
      <coeffs> 2 1 1 2 1 1 2 2 3 1 1 1 1 1 2 1 1 1 1 1 1 1 1 1 1 1 1 2 1 1 1 1 1 1 1 2 2 2 </coeffs>
    </minimize>
  </objectives>
</instance>
